NAME: ../File/prFile/tspFile/tsp_file36.tsp
COMMENT: TSP file generated by Python
TYPE: TSP
DIMENSION: 30
EDGE_WEIGHT_TYPE: EUC_2D
NODE_COORD_SECTION
1 61 83
2 83 1
3 31 44
4 26 82
5 11 12
6 96 31
7 98 52
8 16 68
9 35 56
10 79 7
11 14 76
12 52 52
13 3 56
14 28 86
15 35 66
16 72 72
17 97 30
18 38 75
19 2 85
20 68 18
21 54 19
22 56 4
23 10 78
24 85 54
25 40 82
26 100 18
27 57 17
28 27 40
29 23 14
30 62 60
EOF
